p cnf 146 476
c t mc
-3 -1 0
-3 -2 0
1 2 3 0
6 4 0
6 5 0
-4 -5 -6 0
3 -6 -7 0
-3 6 -7 0
3 6 7 0
-3 -6 7 0
10 -8 0
10 -9 0
8 9 -10 0
10 11 0
-10 11 0
-13 -9 0
-13 12 0
9 -12 13 0
-14 15 -16 0
14 -15 -16 0
-14 -15 16 0
14 15 16 0
17 16 0
17 1 0
-16 -1 -17 0
-19 17 0
-19 18 0
-17 -18 19 0
20 13 0
20 19 0
-13 -19 -20 0
-21 11 0
-21 -20 0
-11 20 21 0
7 -21 -22 0
-7 21 -22 0
7 21 22 0
-7 -21 22 0
-23 8 0
-23 13 0
-8 -13 23 0
-27 25 0
-27 26 0
-25 -26 27 0
-28 24 0
-28 -27 0
-24 27 28 0
23 -28 -29 0
-23 28 -29 0
23 28 29 0
-23 -28 29 0
-30 -29 0
-30 -12 0
29 12 30 0
31 -2 -32 0
-31 2 -32 0
31 2 32 0
-31 -2 32 0
30 32 -33 0
-30 -32 -33 0
30 -32 33 0
-30 32 33 0
-22 33 -34 0
22 -33 -34 0
-22 -33 34 0
22 33 34 0
-36 35 0
-36 -8 0
-35 8 36 0
-16 37 -38 0
16 -37 -38 0
-16 -37 38 0
16 37 38 0
-39 -38 0
-39 -9 0
38 9 39 0
24 -2 -40 0
-24 2 -40 0
24 2 40 0
-24 -2 40 0
-40 41 -42 0
40 -41 -42 0
-40 -41 42 0
40 41 42 0
43 1 0
43 -14 0
-1 14 -43 0
44 42 0
44 -43 0
-42 43 -44 0
-45 -43 0
-45 -31 0
43 31 45 0
-47 -46 0
-47 -46 0
46 47 0
45 -47 -48 0
-45 47 -48 0
45 47 48 0
-45 -47 48 0
-49 44 0
-49 -48 0
-44 48 49 0
50 8 0
50 9 0
-8 -9 -50 0
-52 -50 0
-52 51 0
50 -51 52 0
49 52 -53 0
-49 -52 -53 0
49 -52 53 0
-49 52 53 0
54 -39 0
54 53 0
39 -53 -54 0
-56 -26 0
-56 55 0
26 -55 56 0
-57 -8 0
-57 56 0
8 -56 57 0
17 -26 -58 0
-17 26 -58 0
17 26 58 0
-17 -26 58 0
59 -51 0
59 -58 0
51 58 -59 0
60 -59 0
60 -27 0
59 27 -60 0
61 57 0
61 -60 0
-57 60 -61 0
-62 26 0
-62 -1 0
-26 1 62 0
-9 -62 -63 0
9 62 -63 0
-9 62 63 0
9 -62 63 0
64 19 0
64 -63 0
-19 63 -64 0
-65 16 0
-65 -13 0
-16 13 65 0
66 -25 0
66 65 0
25 -65 -66 0
67 -64 0
67 -66 0
64 66 -67 0
61 67 -68 0
-61 -67 -68 0
61 -67 68 0
-61 67 68 0
-4 50 -69 0
4 -50 -69 0
-4 -50 69 0
4 50 69 0
70 -4 0
70 17 0
4 -17 -70 0
-69 70 -71 0
69 -70 -71 0
-69 -70 71 0
69 70 71 0
-72 -17 -73 0
72 17 -73 0
-72 17 73 0
72 -17 73 0
-73 -62 -74 0
73 62 -74 0
-73 62 74 0
73 -62 74 0
76 -75 0
76 8 0
75 -8 -76 0
-78 77 0
-78 10 0
-77 -10 78 0
79 78 0
79 4 0
-78 -4 -79 0
80 -76 0
80 79 0
76 -79 -80 0
74 -80 -81 0
-74 80 -81 0
74 80 81 0
-74 -80 81 0
82 -11 0
82 37 0
11 -37 -82 0
-83 81 0
-83 -82 0
-81 82 83 0
84 71 0
84 83 0
-71 -83 -84 0
68 -84 -85 0
-68 84 -85 0
68 84 85 0
-68 -84 85 0
86 6 0
86 75 0
-6 -75 -86 0
87 86 0
87 -78 0
-86 78 -87 0
-87 -40 -88 0
87 40 -88 0
-87 40 88 0
87 -40 88 0
89 -15 0
89 -5 0
15 5 -89 0
-4 -89 -90 0
4 89 -90 0
-4 89 90 0
4 -89 90 0
91 51 0
91 90 0
-51 -90 -91 0
-92 -78 0
-92 91 0
78 -91 92 0
93 -10 0
93 40 0
10 -40 -93 0
-94 92 0
-94 93 0
-92 -93 94 0
95 -3 0
95 -45 0
3 45 -95 0
-96 94 0
-96 95 0
-94 -95 96 0
-97 88 0
-97 96 0
-88 -96 97 0
98 85 0
98 -97 0
-85 97 -98 0
99 54 0
99 98 0
-54 -98 -99 0
100 91 0
100 18 0
-91 -18 -100 0
101 -72 0
101 16 0
72 -16 -101 0
-102 100 0
-102 -101 0
-100 101 102 0
103 -9 0
103 -16 0
9 16 -103 0
-104 103 0
-104 47 0
-103 -47 104 0
105 5 0
105 59 0
-5 -59 -105 0
18 29 -106 0
-18 -29 -106 0
18 -29 106 0
-18 29 106 0
-108 16 0
-108 107 0
-16 -107 108 0
106 108 -109 0
-106 -108 -109 0
106 -108 109 0
-106 108 109 0
-110 105 0
-110 -109 0
-105 109 110 0
110 63 -111 0
-110 -63 -111 0
110 -63 111 0
-110 63 111 0
-112 -104 0
-112 -111 0
104 111 112 0
113 -20 0
113 51 0
20 -51 -113 0
37 -113 -114 0
-37 113 -114 0
37 113 114 0
-37 -113 114 0
-115 -78 0
-115 5 0
78 -5 115 0
-116 114 0
-116 -115 0
-114 115 116 0
-117 -112 0
-117 -116 0
112 116 117 0
118 102 0
118 -117 0
-102 117 -118 0
119 -75 0
119 90 0
75 -90 -119 0
120 62 0
120 -103 0
-62 103 -120 0
-121 119 0
-121 120 0
-119 -120 121 0
-118 -121 -122 0
118 121 -122 0
-118 121 122 0
118 -121 122 0
-123 99 0
-123 -122 0
-99 122 123 0
-124 -16 0
-124 50 0
16 -50 124 0
-125 11 0
-125 -37 0
-11 37 125 0
40 77 -126 0
-40 -77 -126 0
40 -77 126 0
-40 77 126 0
-127 125 0
-127 -126 0
-125 126 127 0
124 -127 -128 0
-124 127 -128 0
124 127 128 0
-124 -127 128 0
-129 -2 0
-129 10 0
2 -10 129 0
-8 47 -130 0
8 -47 -130 0
-8 -47 130 0
8 47 130 0
-131 -129 0
-131 -130 0
129 130 131 0
132 128 0
132 -131 0
-128 131 -132 0
133 75 -134 0
-133 -75 -134 0
133 -75 134 0
-133 75 134 0
135 -55 0
135 -134 0
55 134 -135 0
43 -58 -136 0
-43 58 -136 0
43 58 136 0
-43 -58 136 0
137 136 0
137 136 0
-136 -137 0
-138 -43 0
-138 -137 0
43 137 138 0
139 135 0
139 -138 0
-135 138 -139 0
140 -132 0
140 -139 0
132 139 -140 0
-141 13 0
-141 2 0
-13 -2 141 0
142 141 0
142 28 0
-141 -28 -142 0
-143 140 0
-143 -142 0
-140 142 143 0
-144 123 0
-144 -143 0
-123 143 144 0
145 -36 0
145 -144 0
36 144 -145 0
34 145 -146 0
-34 -145 -146 0
34 -145 146 0
-34 145 146 0
84 -7 -110 128 2 -35 -52 -32 0
-37 -119 102 -44 99 -83 0
-86 -140 -35 134 -144 118 132 0
58 -32 18 -127 -73 141 0
-108 85 -11 135 56 0
17 61 -121 -68 -63 89 -103 5 111 124 0
1 -11 125 34 -93 -40 72 0
13 -145 63 64 106 -8 -57 0
-128 -8 -56 107 -65 0
70 95 -107 100 0
-12 48 -51 -128 91 88 0
-123 20 81 -7 -58 0
-122 -70 49 -19 0
-97 -30 47 125 0
-46 -59 -139 -18 140 -123 87 -96 -54 0
-42 -35 -13 -139 10 105 -15 0
-17 -115 66 0
-36 74 96 -101 69 84 -9 0
-123 -134 67 -122 81 -101 -32 0
15 -56 -32 -48 74 -129 0
-69 25 51 0
40 79 34 -36 0
-13 -73 28 -132 105 35 112 -121 129 0
-23 -143 -118 0
18 -114 -6 13 25 -44 11 0
22 98 82 94 -139 117 -119 -59 56 17 0
-53 6 45 -134 -96 -12 129 0
56 110 128 51 -82 0
74 -84 -137 131 -51 58 -53 128 112 113 0
-118 22 54 -120 121 36 -58 0
-30 -60 -108 61 -145 3 15 133 -122 0
4 -65 -6 0
-112 40 -120 -4 111 -75 68 -116 83 0
99 86 128 70 15 -6 0
127 -143 -121 -68 118 138 -45 -44 -20 0
90 102 -47 140 127 -10 -71 39 100 0
99 -114 -110 66 126 67 60 36 13 0
-109 124 -79 -123 87 22 -92 -116 25 0
-110 -1 27 0
71 55 -83 0
10 8 50 44 62 84 108 -20 -112 58 0
-122 -35 -118 -41 80 -26 -107 -47 -65 0
-111 53 -60 -142 82 -52 0
10 56 -16 85 105 -36 0
35 -9 -22 -5 16 -77 -37 -80 -18 117 0
-75 -76 -125 114 40 -12 133 -128 135 0
78 141 123 -47 0
34 -32 70 -37 24 43 0
46 44 59 116 -1 123 -45 -29 42 108 0
35 -70 5 -120 111 0
24 8 -26 47 -55 138 29 0
-23 28 14 4 48 103 0
81 -1 132 0
-106 -17 -65 114 23 -76 13 -56 -78 116 0
-98 -81 74 95 15 0
-25 -63 -90 -46 8 98 0
-67 88 -39 53 28 0
139 -78 133 14 67 0
-106 -88 -36 77 -45 -102 -5 0
-104 -113 13 -43 -65 137 -52 139 -45 0
-132 28 60 118 126 -71 0
-109 79 -95 143 -52 0
-7 -27 29 -109 118 78 0
-94 -5 -13 0
100 -11 92 121 84 -46 72 -101 -142 -134 0
-115 85 -117 104 54 0
94 28 -111 79 -19 0
34 101 -127 -102 77 0
-26 63 70 -61 0
-31 127 128 0
146 -133 59 -23 41 25 67 49 0
-125 -118 -10 86 0
145 -106 110 9 29 117 103 107 0
116 -9 59 79 0
95 -22 -5 38 61 -128 -26 -17 75 0
58 92 -124 0
-138 -117 80 128 0
86 29 -95 -16 102 130 -41 75 0
-136 -32 -11 120 114 0
146 0
